NAME: instances/15_5.tsp
TYPE: TSP
COMMENT: 15-Staedte in Burma (Zaw Win)
DIMENSION: 15
EDGE_WEIGHT_TYPE: GEO
EDGE_WEIGHT_FORMAT: FUNCTION
DISPLAY_DATA_TYPE: COORD_DISPLAY
NODE_COORD_SECTION
1 -23.41 0.93
2 -10.71 -4.79
3 -25.86 4.05
4 12.72 -14.69
5 4.15 18.37
6 19.3 -2.06
7 -24.39 14.42
8 -1.11 0.78
9 0.06 -23.26
10 -8.55 -17.55
11 -24.85 26.88
12 -29.29 -19.35
13 7.98 -26.16
14 -24.78 7.96
15 27.83 22.61
EOF
